p edge 100 1980
e 1 2
e 1 3
e 1 10
e 1 12
e 1 14
e 1 18
e 1 22
e 1 25
e 1 29
e 1 30
e 1 35
e 1 36
e 1 37
e 1 38
e 1 39
e 1 41
e 1 43
e 1 44
e 1 47
e 1 50
e 1 55
e 1 58
e 1 59
e 1 60
e 1 61
e 1 62
e 1 63
e 1 65
e 1 67
e 1 74
e 1 78
e 1 79
e 1 80
e 1 81
e 1 85
e 1 86
e 1 90
e 2 8
e 2 10
e 2 12
e 2 16
e 2 17
e 2 18
e 2 19
e 2 20
e 2 21
e 2 23
e 2 24
e 2 29
e 2 30
e 2 32
e 2 33
e 2 34
e 2 35
e 2 36
e 2 38
e 2 39
e 2 43
e 2 46
e 2 47
e 2 49
e 2 52
e 2 53
e 2 55
e 2 56
e 2 57
e 2 58
e 2 60
e 2 63
e 2 64
e 2 68
e 2 72
e 2 73
e 2 75
e 2 78
e 2 79
e 2 82
e 2 83
e 2 84
e 2 94
e 2 99
e 3 4
e 3 13
e 3 16
e 3 20
e 3 22
e 3 26
e 3 29
e 3 35
e 3 36
e 3 37
e 3 38
e 3 41
e 3 48
e 3 49
e 3 50
e 3 53
e 3 54
e 3 55
e 3 56
e 3 58
e 3 60
e 3 62
e 3 67
e 3 68
e 3 70
e 3 71
e 3 75
e 3 80
e 3 81
e 3 82
e 3 92
e 3 95
e 3 97
e 3 98
e 4 5
e 4 6
e 4 7
e 4 8
e 4 11
e 4 18
e 4 19
e 4 25
e 4 26
e 4 29
e 4 33
e 4 41
e 4 44
e 4 57
e 4 60
e 4 62
e 4 66
e 4 71
e 4 73
e 4 75
e 4 76
e 4 77
e 4 78
e 4 84
e 4 88
e 4 89
e 4 91
e 4 95
e 4 99
e 5 10
e 5 11
e 5 13
e 5 18
e 5 20
e 5 21
e 5 26
e 5 28
e 5 30
e 5 31
e 5 33
e 5 34
e 5 35
e 5 38
e 5 40
e 5 42
e 5 43
e 5 45
e 5 46
e 5 47
e 5 48
e 5 57
e 5 58
e 5 60
e 5 63
e 5 64
e 5 65
e 5 66
e 5 68
e 5 69
e 5 71
e 5 74
e 5 75
e 5 78
e 5 79
e 5 81
e 5 82
e 5 84
e 5 86
e 5 87
e 5 88
e 5 91
e 5 92
e 5 99
e 6 9
e 6 11
e 6 14
e 6 16
e 6 17
e 6 19
e 6 21
e 6 23
e 6 24
e 6 29
e 6 30
e 6 32
e 6 36
e 6 41
e 6 43
e 6 44
e 6 45
e 6 46
e 6 48
e 6 51
e 6 56
e 6 59
e 6 60
e 6 62
e 6 68
e 6 71
e 6 72
e 6 73
e 6 75
e 6 76
e 6 77
e 6 79
e 6 80
e 6 84
e 6 85
e 6 89
e 6 92
e 7 8
e 7 13
e 7 16
e 7 21
e 7 23
e 7 25
e 7 26
e 7 36
e 7 38
e 7 41
e 7 42
e 7 43
e 7 45
e 7 47
e 7 53
e 7 55
e 7 56
e 7 57
e 7 59
e 7 60
e 7 62
e 7 69
e 7 70
e 7 71
e 7 74
e 7 75
e 7 76
e 7 79
e 7 80
e 7 86
e 7 87
e 7 88
e 7 89
e 7 90
e 7 91
e 7 92
e 7 94
e 7 95
e 7 97
e 7 100
e 8 10
e 8 15
e 8 16
e 8 20
e 8 21
e 8 24
e 8 25
e 8 30
e 8 33
e 8 35
e 8 36
e 8 39
e 8 40
e 8 44
e 8 48
e 8 49
e 8 53
e 8 55
e 8 59
e 8 60
e 8 66
e 8 72
e 8 75
e 8 80
e 8 82
e 8 83
e 8 84
e 8 85
e 8 87
e 8 88
e 8 89
e 8 94
e 8 95
e 8 96
e 8 97
e 8 99
e 9 10
e 9 11
e 9 13
e 9 15
e 9 20
e 9 21
e 9 22
e 9 25
e 9 27
e 9 29
e 9 30
e 9 36
e 9 41
e 9 42
e 9 44
e 9 45
e 9 46
e 9 48
e 9 49
e 9 50
e 9 51
e 9 56
e 9 61
e 9 63
e 9 65
e 9 67
e 9 68
e 9 72
e 9 74
e 9 75
e 9 80
e 9 83
e 9 87
e 9 89
e 9 90
e 9 91
e 9 92
e 9 93
e 9 95
e 9 99
e 9 100
e 10 16
e 10 23
e 10 24
e 10 25
e 10 26
e 10 31
e 10 33
e 10 34
e 10 35
e 10 37
e 10 39
e 10 41
e 10 44
e 10 46
e 10 47
e 10 49
e 10 50
e 10 56
e 10 58
e 10 59
e 10 62
e 10 64
e 10 65
e 10 68
e 10 69
e 10 74
e 10 77
e 10 82
e 10 87
e 10 88
e 10 89
e 10 90
e 10 94
e 10 95
e 10 96
e 10 97
e 10 98
e 11 13
e 11 15
e 11 18
e 11 20
e 11 21
e 11 22
e 11 26
e 11 27
e 11 30
e 11 31
e 11 32
e 11 34
e 11 39
e 11 41
e 11 43
e 11 45
e 11 46
e 11 47
e 11 49
e 11 52
e 11 57
e 11 58
e 11 59
e 11 60
e 11 63
e 11 64
e 11 65
e 11 66
e 11 68
e 11 71
e 11 72
e 11 82
e 11 84
e 11 87
e 11 92
e 11 97
e 11 99
e 12 15
e 12 18
e 12 19
e 12 21
e 12 22
e 12 26
e 12 28
e 12 30
e 12 32
e 12 33
e 12 39
e 12 41
e 12 44
e 12 47
e 12 53
e 12 55
e 12 57
e 12 58
e 12 59
e 12 63
e 12 66
e 12 69
e 12 72
e 12 76
e 12 77
e 12 78
e 12 81
e 12 83
e 12 84
e 12 85
e 12 98
e 13 15
e 13 23
e 13 31
e 13 37
e 13 39
e 13 42
e 13 45
e 13 47
e 13 48
e 13 51
e 13 53
e 13 56
e 13 58
e 13 59
e 13 64
e 13 66
e 13 68
e 13 72
e 13 73
e 13 74
e 13 76
e 13 78
e 13 81
e 13 82
e 13 83
e 13 89
e 13 91
e 13 93
e 13 96
e 13 97
e 14 24
e 14 27
e 14 28
e 14 29
e 14 32
e 14 34
e 14 35
e 14 38
e 14 39
e 14 40
e 14 41
e 14 50
e 14 52
e 14 57
e 14 59
e 14 60
e 14 67
e 14 68
e 14 71
e 14 76
e 14 78
e 14 80
e 14 81
e 14 86
e 14 91
e 14 94
e 14 95
e 14 99
e 14 100
e 15 16
e 15 17
e 15 19
e 15 21
e 15 23
e 15 30
e 15 35
e 15 36
e 15 37
e 15 38
e 15 39
e 15 40
e 15 42
e 15 43
e 15 45
e 15 46
e 15 47
e 15 49
e 15 50
e 15 51
e 15 53
e 15 61
e 15 65
e 15 67
e 15 71
e 15 73
e 15 74
e 15 75
e 15 78
e 15 79
e 15 85
e 15 89
e 15 93
e 15 94
e 15 95
e 15 96
e 15 98
e 16 22
e 16 23
e 16 24
e 16 32
e 16 34
e 16 47
e 16 48
e 16 50
e 16 53
e 16 55
e 16 56
e 16 59
e 16 60
e 16 62
e 16 65
e 16 66
e 16 68
e 16 69
e 16 76
e 16 79
e 16 83
e 16 85
e 16 89
e 16 91
e 16 92
e 16 96
e 16 97
e 16 100
e 17 18
e 17 19
e 17 21
e 17 25
e 17 27
e 17 28
e 17 38
e 17 43
e 17 45
e 17 47
e 17 49
e 17 52
e 17 53
e 17 59
e 17 63
e 17 64
e 17 65
e 17 69
e 17 71
e 17 73
e 17 74
e 17 76
e 17 78
e 17 81
e 17 84
e 17 86
e 17 89
e 17 95
e 17 96
e 17 99
e 18 22
e 18 23
e 18 25
e 18 32
e 18 35
e 18 38
e 18 40
e 18 44
e 18 45
e 18 46
e 18 47
e 18 48
e 18 50
e 18 58
e 18 59
e 18 62
e 18 63
e 18 64
e 18 67
e 18 77
e 18 78
e 18 79
e 18 80
e 18 81
e 18 83
e 18 86
e 18 88
e 18 90
e 18 91
e 18 93
e 18 94
e 18 99
e 18 100
e 19 20
e 19 22
e 19 27
e 19 29
e 19 30
e 19 32
e 19 37
e 19 39
e 19 40
e 19 42
e 19 46
e 19 47
e 19 48
e 19 50
e 19 51
e 19 52
e 19 54
e 19 59
e 19 63
e 19 65
e 19 69
e 19 70
e 19 72
e 19 74
e 19 77
e 19 78
e 19 83
e 19 86
e 19 87
e 19 90
e 19 92
e 19 93
e 19 94
e 19 98
e 20 21
e 20 25
e 20 28
e 20 31
e 20 37
e 20 40
e 20 42
e 20 43
e 20 44
e 20 48
e 20 53
e 20 55
e 20 57
e 20 60
e 20 62
e 20 67
e 20 74
e 20 76
e 20 77
e 20 79
e 20 80
e 20 82
e 20 83
e 20 84
e 20 85
e 20 87
e 20 92
e 20 95
e 20 98
e 20 100
e 21 22
e 21 24
e 21 25
e 21 34
e 21 39
e 21 41
e 21 43
e 21 47
e 21 52
e 21 54
e 21 56
e 21 58
e 21 59
e 21 63
e 21 65
e 21 68
e 21 69
e 21 71
e 21 74
e 21 76
e 21 78
e 21 80
e 21 84
e 21 86
e 21 89
e 21 90
e 21 91
e 21 92
e 21 98
e 21 100
e 22 23
e 22 24
e 22 26
e 22 27
e 22 28
e 22 30
e 22 32
e 22 33
e 22 35
e 22 37
e 22 38
e 22 40
e 22 44
e 22 45
e 22 46
e 22 49
e 22 51
e 22 52
e 22 59
e 22 61
e 22 63
e 22 64
e 22 65
e 22 66
e 22 69
e 22 79
e 22 80
e 22 81
e 22 82
e 22 83
e 22 84
e 22 90
e 22 91
e 22 92
e 22 94
e 22 97
e 22 98
e 22 99
e 23 24
e 23 25
e 23 26
e 23 28
e 23 31
e 23 32
e 23 34
e 23 35
e 23 43
e 23 44
e 23 45
e 23 47
e 23 54
e 23 55
e 23 56
e 23 59
e 23 60
e 23 62
e 23 63
e 23 66
e 23 67
e 23 71
e 23 75
e 23 80
e 23 83
e 23 88
e 23 91
e 23 92
e 23 94
e 23 95
e 24 25
e 24 27
e 24 31
e 24 34
e 24 35
e 24 39
e 24 41
e 24 43
e 24 44
e 24 45
e 24 47
e 24 52
e 24 53
e 24 60
e 24 70
e 24 73
e 24 76
e 24 77
e 24 79
e 24 83
e 24 84
e 24 85
e 24 88
e 24 92
e 24 93
e 24 94
e 24 95
e 24 97
e 24 98
e 24 100
e 25 28
e 25 30
e 25 34
e 25 35
e 25 36
e 25 40
e 25 41
e 25 43
e 25 46
e 25 47
e 25 48
e 25 53
e 25 56
e 25 57
e 25 59
e 25 64
e 25 66
e 25 67
e 25 69
e 25 70
e 25 73
e 25 78
e 25 81
e 25 83
e 25 84
e 25 85
e 25 88
e 25 89
e 25 91
e 25 97
e 25 98
e 25 99
e 25 100
e 26 27
e 26 28
e 26 33
e 26 37
e 26 38
e 26 39
e 26 44
e 26 45
e 26 46
e 26 50
e 26 52
e 26 57
e 26 60
e 26 63
e 26 64
e 26 72
e 26 73
e 26 78
e 26 79
e 26 80
e 26 83
e 26 90
e 26 93
e 26 94
e 26 96
e 26 99
e 27 30
e 27 32
e 27 37
e 27 39
e 27 44
e 27 46
e 27 49
e 27 50
e 27 52
e 27 56
e 27 57
e 27 59
e 27 61
e 27 62
e 27 63
e 27 70
e 27 72
e 27 73
e 27 76
e 27 78
e 27 79
e 27 81
e 27 82
e 27 83
e 27 84
e 27 87
e 27 91
e 27 92
e 27 93
e 27 96
e 27 98
e 27 100
e 28 30
e 28 34
e 28 35
e 28 39
e 28 41
e 28 43
e 28 45
e 28 47
e 28 49
e 28 50
e 28 53
e 28 54
e 28 57
e 28 58
e 28 59
e 28 61
e 28 63
e 28 65
e 28 67
e 28 69
e 28 70
e 28 71
e 28 79
e 28 82
e 28 89
e 28 90
e 28 92
e 28 93
e 28 95
e 28 97
e 29 32
e 29 33
e 29 35
e 29 36
e 29 40
e 29 41
e 29 42
e 29 43
e 29 45
e 29 54
e 29 55
e 29 56
e 29 62
e 29 64
e 29 65
e 29 67
e 29 68
e 29 70
e 29 80
e 29 81
e 29 83
e 29 88
e 29 89
e 29 97
e 29 98
e 30 31
e 30 33
e 30 35
e 30 38
e 30 39
e 30 42
e 30 50
e 30 53
e 30 55
e 30 60
e 30 61
e 30 63
e 30 67
e 30 68
e 30 72
e 30 73
e 30 74
e 30 75
e 30 76
e 30 77
e 30 81
e 30 87
e 30 88
e 30 91
e 30 94
e 30 98
e 31 34
e 31 35
e 31 39
e 31 40
e 31 48
e 31 53
e 31 54
e 31 55
e 31 58
e 31 60
e 31 61
e 31 62
e 31 64
e 31 73
e 31 74
e 31 75
e 31 76
e 31 77
e 31 78
e 31 80
e 31 83
e 31 84
e 31 85
e 31 87
e 31 89
e 31 90
e 31 96
e 32 35
e 32 37
e 32 38
e 32 39
e 32 41
e 32 44
e 32 47
e 32 49
e 32 52
e 32 55
e 32 56
e 32 64
e 32 67
e 32 68
e 32 69
e 32 70
e 32 74
e 32 75
e 32 77
e 32 78
e 32 79
e 32 84
e 32 92
e 32 95
e 32 96
e 32 97
e 32 99
e 32 100
e 33 37
e 33 38
e 33 39
e 33 42
e 33 43
e 33 44
e 33 46
e 33 51
e 33 55
e 33 56
e 33 57
e 33 60
e 33 62
e 33 64
e 33 65
e 33 70
e 33 74
e 33 78
e 33 80
e 33 81
e 33 82
e 33 83
e 33 84
e 33 85
e 33 86
e 33 88
e 33 93
e 33 94
e 34 36
e 34 37
e 34 39
e 34 41
e 34 42
e 34 47
e 34 49
e 34 50
e 34 55
e 34 58
e 34 59
e 34 61
e 34 64
e 34 65
e 34 67
e 34 70
e 34 71
e 34 72
e 34 73
e 34 74
e 34 76
e 34 77
e 34 78
e 34 80
e 34 83
e 34 85
e 34 89
e 34 90
e 34 92
e 34 93
e 34 94
e 34 96
e 34 97
e 34 98
e 34 99
e 35 38
e 35 39
e 35 41
e 35 45
e 35 48
e 35 52
e 35 57
e 35 59
e 35 61
e 35 62
e 35 66
e 35 70
e 35 71
e 35 78
e 35 82
e 35 84
e 35 90
e 35 92
e 35 96
e 35 97
e 35 100
e 36 47
e 36 50
e 36 51
e 36 55
e 36 56
e 36 57
e 36 59
e 36 60
e 36 61
e 36 63
e 36 65
e 36 68
e 36 69
e 36 71
e 36 72
e 36 73
e 36 76
e 36 77
e 36 78
e 36 81
e 36 85
e 36 86
e 36 87
e 36 93
e 36 95
e 36 96
e 36 97
e 36 100
e 37 38
e 37 39
e 37 41
e 37 43
e 37 45
e 37 54
e 37 65
e 37 66
e 37 69
e 37 70
e 37 71
e 37 73
e 37 76
e 37 82
e 37 83
e 37 91
e 37 92
e 37 94
e 37 99
e 37 100
e 38 39
e 38 41
e 38 48
e 38 51
e 38 52
e 38 55
e 38 56
e 38 57
e 38 60
e 38 61
e 38 63
e 38 66
e 38 68
e 38 70
e 38 71
e 38 72
e 38 73
e 38 75
e 38 77
e 38 78
e 38 80
e 38 82
e 38 83
e 38 85
e 38 87
e 38 89
e 38 90
e 38 93
e 38 96
e 38 97
e 38 98
e 39 40
e 39 43
e 39 48
e 39 49
e 39 53
e 39 54
e 39 62
e 39 63
e 39 64
e 39 71
e 39 72
e 39 75
e 39 79
e 39 82
e 39 83
e 39 85
e 39 86
e 39 87
e 39 88
e 39 91
e 39 94
e 39 95
e 39 96
e 39 100
e 40 41
e 40 42
e 40 43
e 40 47
e 40 49
e 40 52
e 40 54
e 40 57
e 40 64
e 40 65
e 40 66
e 40 67
e 40 73
e 40 75
e 40 78
e 40 81
e 40 82
e 40 85
e 40 86
e 40 88
e 40 89
e 40 91
e 40 94
e 40 95
e 40 98
e 40 99
e 41 46
e 41 47
e 41 49
e 41 54
e 41 55
e 41 63
e 41 66
e 41 70
e 41 71
e 41 76
e 41 77
e 41 79
e 41 81
e 41 83
e 41 84
e 41 86
e 41 87
e 41 88
e 41 93
e 41 95
e 41 97
e 41 98
e 41 100
e 42 43
e 42 45
e 42 46
e 42 47
e 42 52
e 42 54
e 42 58
e 42 60
e 42 61
e 42 63
e 42 64
e 42 68
e 42 69
e 42 73
e 42 74
e 42 75
e 42 76
e 42 77
e 42 78
e 42 82
e 42 83
e 42 84
e 42 85
e 42 86
e 42 89
e 42 90
e 42 93
e 42 95
e 42 97
e 42 98
e 42 99
e 43 49
e 43 51
e 43 53
e 43 55
e 43 57
e 43 60
e 43 61
e 43 64
e 43 66
e 43 69
e 43 71
e 43 75
e 43 76
e 43 77
e 43 83
e 43 86
e 43 87
e 43 88
e 43 89
e 43 96
e 44 45
e 44 46
e 44 51
e 44 52
e 44 53
e 44 54
e 44 61
e 44 63
e 44 64
e 44 66
e 44 69
e 44 72
e 44 73
e 44 74
e 44 76
e 44 77
e 44 80
e 44 82
e 44 85
e 44 86
e 44 87
e 44 88
e 44 93
e 44 94
e 44 98
e 45 47
e 45 49
e 45 53
e 45 54
e 45 55
e 45 57
e 45 65
e 45 66
e 45 68
e 45 72
e 45 76
e 45 78
e 45 79
e 45 84
e 45 85
e 45 86
e 45 91
e 45 94
e 45 96
e 45 99
e 46 47
e 46 48
e 46 50
e 46 51
e 46 53
e 46 54
e 46 60
e 46 62
e 46 63
e 46 64
e 46 65
e 46 66
e 46 67
e 46 68
e 46 69
e 46 70
e 46 71
e 46 72
e 46 73
e 46 74
e 46 75
e 46 77
e 46 78
e 46 80
e 46 84
e 46 85
e 46 88
e 46 89
e 46 92
e 46 98
e 46 99
e 47 48
e 47 54
e 47 58
e 47 60
e 47 61
e 47 65
e 47 67
e 47 78
e 47 79
e 47 81
e 47 82
e 47 83
e 47 87
e 47 89
e 47 91
e 47 95
e 47 96
e 47 97
e 47 99
e 47 100
e 48 50
e 48 51
e 48 52
e 48 53
e 48 59
e 48 60
e 48 62
e 48 64
e 48 66
e 48 67
e 48 71
e 48 73
e 48 74
e 48 81
e 48 84
e 48 87
e 48 88
e 48 91
e 48 92
e 48 94
e 48 95
e 48 100
e 49 54
e 49 58
e 49 63
e 49 64
e 49 66
e 49 69
e 49 73
e 49 77
e 49 79
e 49 81
e 49 86
e 49 87
e 49 91
e 50 53
e 50 55
e 50 59
e 50 60
e 50 61
e 50 64
e 50 66
e 50 67
e 50 68
e 50 70
e 50 80
e 50 85
e 50 86
e 50 88
e 50 92
e 50 95
e 50 97
e 50 98
e 50 100
e 51 53
e 51 60
e 51 61
e 51 65
e 51 75
e 51 76
e 51 77
e 51 81
e 51 84
e 51 86
e 51 89
e 51 90
e 51 91
e 51 94
e 51 97
e 51 99
e 51 100
e 52 54
e 52 55
e 52 56
e 52 60
e 52 62
e 52 67
e 52 68
e 52 70
e 52 71
e 52 73
e 52 75
e 52 76
e 52 81
e 52 82
e 52 85
e 52 87
e 52 90
e 52 93
e 52 94
e 52 95
e 52 96
e 52 98
e 52 99
e 53 56
e 53 57
e 53 58
e 53 60
e 53 61
e 53 62
e 53 63
e 53 64
e 53 66
e 53 70
e 53 75
e 53 77
e 53 78
e 53 84
e 53 85
e 53 86
e 53 91
e 53 93
e 53 99
e 54 56
e 54 64
e 54 65
e 54 66
e 54 67
e 54 71
e 54 75
e 54 77
e 54 79
e 54 81
e 54 86
e 54 89
e 54 92
e 54 95
e 54 100
e 55 60
e 55 66
e 55 68
e 55 69
e 55 70
e 55 71
e 55 74
e 55 76
e 55 77
e 55 79
e 55 84
e 55 85
e 55 87
e 55 92
e 55 95
e 55 96
e 55 97
e 56 58
e 56 60
e 56 64
e 56 65
e 56 68
e 56 69
e 56 73
e 56 74
e 56 75
e 56 76
e 56 77
e 56 84
e 56 86
e 56 87
e 56 89
e 56 92
e 56 100
e 57 58
e 57 63
e 57 64
e 57 68
e 57 73
e 57 74
e 57 76
e 57 77
e 57 78
e 57 80
e 57 81
e 57 94
e 57 95
e 57 96
e 57 100
e 58 59
e 58 62
e 58 63
e 58 65
e 58 67
e 58 73
e 58 74
e 58 76
e 58 78
e 58 82
e 58 85
e 58 86
e 58 87
e 58 89
e 58 90
e 58 91
e 58 93
e 58 95
e 58 96
e 58 98
e 59 60
e 59 61
e 59 62
e 59 67
e 59 68
e 59 69
e 59 72
e 59 73
e 59 76
e 59 78
e 59 84
e 59 86
e 59 89
e 59 91
e 59 92
e 59 93
e 59 97
e 59 98
e 59 99
e 59 100
e 60 61
e 60 62
e 60 63
e 60 65
e 60 66
e 60 72
e 60 74
e 60 75
e 60 76
e 60 77
e 60 78
e 60 83
e 60 91
e 60 94
e 60 95
e 60 96
e 60 97
e 60 98
e 60 100
e 61 64
e 61 66
e 61 70
e 61 71
e 61 72
e 61 73
e 61 74
e 61 88
e 61 90
e 61 92
e 61 94
e 61 97
e 61 98
e 61 100
e 62 63
e 62 65
e 62 67
e 62 70
e 62 73
e 62 75
e 62 76
e 62 77
e 62 78
e 62 79
e 62 80
e 62 83
e 62 89
e 62 91
e 62 96
e 63 67
e 63 69
e 63 70
e 63 72
e 63 73
e 63 77
e 63 84
e 63 86
e 63 91
e 63 92
e 63 93
e 63 94
e 63 95
e 63 99
e 64 65
e 64 67
e 64 69
e 64 70
e 64 71
e 64 74
e 64 77
e 64 80
e 64 83
e 64 84
e 64 85
e 64 88
e 64 89
e 64 92
e 64 94
e 64 100
e 65 66
e 65 67
e 65 68
e 65 70
e 65 71
e 65 72
e 65 73
e 65 75
e 65 77
e 65 79
e 65 81
e 65 82
e 65 85
e 65 86
e 65 88
e 65 90
e 65 92
e 65 97
e 65 98
e 65 99
e 66 67
e 66 70
e 66 71
e 66 72
e 66 73
e 66 79
e 66 86
e 66 88
e 66 89
e 66 90
e 66 91
e 66 92
e 66 95
e 66 97
e 66 100
e 67 68
e 67 71
e 67 73
e 67 75
e 67 77
e 67 78
e 67 79
e 67 80
e 67 84
e 67 91
e 67 93
e 67 94
e 67 98
e 68 72
e 68 73
e 68 74
e 68 75
e 68 78
e 68 79
e 68 81
e 68 83
e 68 84
e 68 88
e 68 90
e 69 71
e 69 74
e 69 75
e 69 76
e 69 79
e 69 81
e 69 82
e 69 86
e 69 87
e 69 88
e 69 90
e 69 92
e 69 94
e 69 95
e 69 99
e 69 100
e 70 75
e 70 78
e 70 79
e 70 80
e 70 84
e 70 85
e 70 88
e 70 89
e 70 92
e 70 93
e 70 94
e 70 97
e 71 74
e 71 75
e 71 78
e 71 80
e 71 81
e 71 83
e 71 88
e 71 90
e 71 91
e 71 93
e 71 95
e 71 96
e 71 97
e 71 100
e 72 73
e 72 74
e 72 75
e 72 76
e 72 77
e 72 78
e 72 80
e 72 81
e 72 96
e 73 74
e 73 75
e 73 77
e 73 81
e 73 82
e 73 87
e 73 88
e 73 92
e 73 93
e 73 97
e 74 76
e 74 77
e 74 79
e 74 82
e 74 84
e 74 88
e 74 92
e 74 94
e 74 96
e 74 100
e 75 76
e 75 78
e 75 80
e 75 83
e 75 85
e 75 88
e 75 91
e 75 97
e 75 98
e 76 80
e 76 82
e 76 85
e 76 87
e 76 93
e 76 96
e 76 98
e 76 99
e 76 100
e 77 82
e 77 85
e 77 86
e 77 87
e 77 89
e 77 90
e 77 91
e 77 92
e 77 94
e 77 96
e 77 98
e 77 99
e 78 83
e 78 86
e 78 87
e 78 94
e 79 80
e 79 87
e 79 90
e 79 91
e 79 92
e 79 93
e 79 95
e 79 96
e 79 97
e 79 100
e 80 81
e 80 84
e 80 85
e 80 100
e 81 85
e 81 86
e 81 89
e 81 92
e 81 100
e 82 84
e 82 87
e 82 88
e 82 89
e 82 91
e 82 92
e 82 95
e 82 98
e 82 99
e 82 100
e 83 85
e 83 88
e 83 89
e 83 90
e 83 92
e 83 96
e 83 97
e 83 98
e 84 89
e 84 91
e 84 93
e 84 95
e 84 96
e 84 97
e 84 99
e 85 86
e 85 88
e 85 90
e 85 91
e 85 92
e 85 93
e 85 94
e 85 98
e 85 99
e 86 89
e 86 92
e 86 94
e 86 95
e 86 97
e 87 90
e 87 95
e 88 89
e 88 96
e 88 97
e 88 99
e 89 92
e 89 98
e 89 100
e 90 95
e 90 98
e 91 92
e 91 95
e 91 96
e 92 93
e 92 95
e 92 96
e 92 97
e 92 99
e 93 95
e 94 97
e 94 99
e 94 100
e 95 98
e 96 97
e 96 100
e 97 98
